Traveling Salesman Problem/TSP_generados/Aleatorio1620390912_8.tsp
NAME: Aleatorio1620390912_8.tsp
COMMENT: Randomly generated scenario
TYPE: TSP
DIMENSION: 8
EDGE_WEIGHT_TYPE: ATT
NODE_COORD_SECTION
1 23.78 24.26
2 21.47 40.43
3 21.45 35.55
4 35.48 30.73
5 9.52 0.43
6 31.66 29.99
7 8.56 45.43
8 18.93 0.16
