Traveling Salesman Problem/TSP_generados/Aleatorio1620390912_8.opt.tour
NAME: Aleatorio1620390912_8.opt.tour
COMMENT: Optimal solution for Aleatorio1620390912_8 (126.2006997741949)
TYPE: TOUR
DIMENSION: 8
TOUR_SECTION
1 8 5 7 2 3 4 6
-1
EOF
